unsat
(:binary-propagations  65
 :conflicts            1
 :final-checks         1
 :max-generation       1
 :max-memory           34.14
 :memory               23.63
 :mk-bool-var          7683
 :mk-clause            2742
 :mk-clause-binary     5484
 :num-allocs           326708380
 :num-checks           1
 :propagations         65
 :quant-instantiations 1742
 :restarts             1
 :rlimit-count         877651
 :time                 0.23)
